(declare-const p2 Real)
(declare-const p4 Real)
(declare-const fee_bl Real)
(declare-const p5 Real)
(declare-const income Real)
(assert (= p2 (* 0.02 (ite (> income 500) 500 income))))
(assert (= p4 (ite (> income 500) (* 0.04 (- (ite (> income 3000) 3000 income) 500)) 0)))
(assert (= p5 (ite (> income 3000) (* 0.05 (- income 3000)) 0)))
(assert (= fee_bl (+ (+ p2 p4) p5)))